RT is False
Default write of storage_offers_DA.csv just to have a file (but constraint should be inactive)
Reading model...
...model read.
creating competitive generators file...
...competitive generators recorded.
Loading data...
.. day-ahead data with real-time VRE data read.
Compiling instance...
...instance created.
Creating Offer Mitigation (model will solve as dispatch if TRUE)...
Solving...

Welcome to IBM(R) ILOG(R) CPLEX(R) Interactive Optimizer 12.9.0.0
  with Simplex, Mixed Integer & Barrier Optimizers
5725-A06 5725-A29 5724-Y48 5724-Y49 5724-Y54 5724-Y55 5655-Y21
Copyright IBM Corp. 1988, 2019.  All Rights Reserved.

Type 'help' for a list of available commands.
Type 'help' followed by a command name for more
information on commands.

CPLEX> Logfile 'cplex.log' closed.
Logfile 'C:\Users\Luke\Desktop\test919\logs\tmpno9e6cnd.cplex.log' open.
CPLEX> New value for parallel optimization mode: -1
CPLEX> New value for mixed integer optimality gap tolerance: 0.01
CPLEX> New value for integrality tolerance: 1e-09
CPLEX> New value for feasibility tolerance: 0.01
CPLEX> New value for deterministic time limit in ticks: 75000
CPLEX> Problem 'C:\Users\Luke\Desktop\test919\logs\tmp8hluqe23.pyomo.lp' read.
Read time = 0.05 sec. (3.04 ticks)
CPLEX> Problem name         : C:\Users\Luke\Desktop\test919\logs\tmp8hluqe23.pyomo.lp
Objective sense      : Minimize
Variables            :   26081  [Nneg: 1,  Box: 21616,  Free: 4464]
Objective nonzeros   :    2496
Linear constraints   :   27515  [Less: 14006,  Greater: 4416,  Equal: 9093]
  Nonzeros           :   89219
  RHS nonzeros       :   12271

Variables            : Min LB: -5000.000        Max UB: 1000000.       
Objective nonzeros   : Min   : 15.73158         Max   : 124.0997       
Linear constraints   :
  Nonzeros           : Min   : 0.8500000        Max   : 3000.000       
  RHS nonzeros       : Min   : 0.1083333        Max   : 5000.000       
CPLEX> CPXPARAM_Parallel                                -1
CPXPARAM_Simplex_Tolerances_Feasibility          0.01
CPXPARAM_DetTimeLimit                            75000
CPXPARAM_MIP_Tolerances_MIPGap                   0.01
CPXPARAM_MIP_Tolerances_Integrality              1.0000000000000001e-09
Parallel mode: opportunistic, using up to 12 threads for concurrent optimization.
Tried aggregator 1 time.
LP Presolve eliminated 21377 rows and 15487 columns.
Aggregator did 746 substitutions.
Reduced LP has 5392 rows, 9848 columns, and 31788 nonzeros.
Presolve time = 0.05 sec. (30.20 ticks)
Symmetry aggregator did 5563 additional substitutions.
Initializing dual steep norms . . .

Iteration log . . .
Iteration:     1   Dual objective     =             0.000000
Perturbation started.
Iteration:   101   Dual objective     =             0.000000
Iteration:   284   Dual objective     =            46.795171
Iteration:   433   Dual objective     =            68.050434
Iteration:   652   Dual objective     =            71.100762
Iteration:   918   Dual objective     =            71.126824
Iteration:  1105   Dual objective     =            71.149739
Iteration:  1330   Dual objective     =         33400.488842
Removing perturbation.

Dual crossover.
  Dual:  Fixing 4 variables.
Using devex.

Primal simplex solved model.


Primal simplex - Optimal:  Objective =  3.9386407474e+04
Solution time =    0.13 sec.  Iterations = 1577 (1067)
Deterministic time = 77.91 ticks  (623.27 ticks/sec)

CPLEX> Solution written to file 'C:\Users\Luke\Desktop\test919\logs\tmpfr4tkz8f.cplex.sol'.
CPLEX> Exporting results... 
...storage offer mitigation file created
Converting model to MPEC...
...converted
NOTE: initial MIP solve with only storage competitive to get feasible solution
Solving...

Welcome to IBM(R) ILOG(R) CPLEX(R) Interactive Optimizer 12.9.0.0
  with Simplex, Mixed Integer & Barrier Optimizers
5725-A06 5725-A29 5724-Y48 5724-Y49 5724-Y54 5724-Y55 5655-Y21
Copyright IBM Corp. 1988, 2019.  All Rights Reserved.

Type 'help' for a list of available commands.
Type 'help' followed by a command name for more
information on commands.

CPLEX> Logfile 'cplex.log' closed.
Logfile 'C:\Users\Luke\Desktop\test919\logs\tmpz72b05h7.cplex.log' open.
CPLEX> New value for parallel optimization mode: -1
CPLEX> New value for mixed integer optimality gap tolerance: 0.01
CPLEX> New value for integrality tolerance: 1e-09
CPLEX> New value for feasibility tolerance: 0.01
CPLEX> New value for deterministic time limit in ticks: 75000
CPLEX> Problem 'C:\Users\Luke\Desktop\test919\logs\tmpmp9igakt.pyomo.lp' read.
Read time = 0.20 sec. (14.78 ticks)
CPLEX> Problem name         : C:\Users\Luke\Desktop\test919\logs\tmpmp9igakt.pyomo.lp
Objective sense      : Maximize
Variables            :   53805  [Nneg: 1,  Box: 22000,  Free: 4464,
                                 Binary: 27340]
Objective nonzeros   :    9029
Linear constraints   :  123205  [Less: 41346,  Greater: 59096,  Equal: 22763]
  Nonzeros           :  291753
  RHS nonzeros       :   67415

Variables            : Min LB: -5000.000        Max UB: 1000000.       
Objective nonzeros   : Min   : 0.1083333        Max   : 2500.000       
Linear constraints   :
  Nonzeros           : Min   : 0.1083333        Max   : 1000000.       
  RHS nonzeros       : Min   : 0.1083333        Max   : 1000000.       
CPLEX> CPXPARAM_Parallel                                -1
CPXPARAM_Simplex_Tolerances_Feasibility          0.01
CPXPARAM_DetTimeLimit                            75000
CPXPARAM_MIP_Tolerances_MIPGap                   0.01
CPXPARAM_MIP_Tolerances_Integrality              1.0000000000000001e-09
Tried aggregator 3 times.
MIP Presolve eliminated 88643 rows and 18967 columns.
MIP Presolve added 3376 rows and 0 columns.
MIP Presolve modified 24869 coefficients.
Aggregator did 12990 substitutions.
Reduced MIP has 24948 rows, 21292 columns, and 71155 nonzeros.
Reduced MIP has 8419 binaries, 0 generals, 0 SOSs, and 0 indicators.
Presolve time = 0.23 sec. (173.63 ticks)
Probing fixed 379 vars, tightened 2817 bounds.
Probing time = 1.52 sec. (878.03 ticks)
Tried aggregator 2 times.
MIP Presolve eliminated 855 rows and 760 columns.
MIP Presolve modified 2213 coefficients.
Aggregator did 42 substitutions.
Reduced MIP has 24051 rows, 20490 columns, and 68559 nonzeros.
Reduced MIP has 8039 binaries, 0 generals, 0 SOSs, and 0 indicators.
Presolve time = 0.09 sec. (67.94 ticks)
Probing time = 0.05 sec. (16.30 ticks)
Clique table members: 6474.
MIP emphasis: balance optimality and feasibility.
MIP search method: dynamic search.
Parallel mode: opportunistic, using up to 12 threads.
Root relaxation solution time = 0.48 sec. (557.49 ticks)

        Nodes                                         Cuts/
   Node  Left     Objective  IInf  Best Integer    Best Bound    ItCnt     Gap

      0     0      760.2130   681                    760.2130     6516         
*     0+    0                          760.2130      760.2130             0.00%
      0     0        cutoff            760.2130      760.2130     6517    0.00%
Elapsed time = 4.72 sec. (2967.12 ticks, tree = 0.01 MB, solutions = 1)

Root node processing (before b&c):
  Real time             =    4.72 sec. (2968.95 ticks)
Parallel b&c, 12 threads:
  Real time             =    0.00 sec. (0.00 ticks)
  Sync time (average)   =    0.00 sec.
  Wait time (average)   =    0.00 sec.
                          ------------
Total (root+branch&cut) =    4.72 sec. (2968.95 ticks)

Solution pool: 1 solution saved.

MIP - Integer optimal solution:  Objective =  7.6021303435e+02
Solution time =    4.72 sec.  Iterations = 6517  Nodes = 0
Deterministic time = 2969.11 ticks  (629.18 ticks/sec)

CPLEX> Incumbent solution written to file 'C:\Users\Luke\Desktop\test919\logs\tmp6yursfm7.cplex.sol'.
CPLEX> NOTE: no warmstart specified for MIP iteration, default behavior is true
NOTE: resolving with all competitive generators using storage-only solution to warmstart
Solving...

Welcome to IBM(R) ILOG(R) CPLEX(R) Interactive Optimizer 12.9.0.0
  with Simplex, Mixed Integer & Barrier Optimizers
5725-A06 5725-A29 5724-Y48 5724-Y49 5724-Y54 5724-Y55 5655-Y21
Copyright IBM Corp. 1988, 2019.  All Rights Reserved.

Type 'help' for a list of available commands.
Type 'help' followed by a command name for more
information on commands.

CPLEX> Logfile 'cplex.log' closed.
Logfile 'C:\Users\Luke\Desktop\test919\logs\tmp4nlmom_w.cplex.log' open.
CPLEX> New value for parallel optimization mode: -1
CPLEX> New value for mixed integer optimality gap tolerance: 0.01
CPLEX> New value for integrality tolerance: 1e-09
CPLEX> New value for feasibility tolerance: 0.01
CPLEX> New value for deterministic time limit in ticks: 75000
CPLEX> Problem 'C:\Users\Luke\Desktop\test919\logs\tmpvyw59tbl.pyomo.lp' read.
Read time = 0.20 sec. (14.81 ticks)
CPLEX> MIP start file 'C:\Users\Luke\Desktop\test919\logs\tmpn7q4myi7.cplex.mst' read.
CPLEX> Problem name         : C:\Users\Luke\Desktop\test919\logs\tmpvyw59tbl.pyomo.lp
Objective sense      : Maximize
Variables            :   54525  [Nneg: 1,  Box: 22720,  Free: 4464,
                                 Binary: 27340]
Objective nonzeros   :    9725
Linear constraints   :  123205  [Less: 41346,  Greater: 59096,  Equal: 22763]
  Nonzeros           :  291753
  RHS nonzeros       :   67415

Variables            : Min LB: -5000.000        Max UB: 1000000.       
Objective nonzeros   : Min   : 0.1083333        Max   : 2500.000       
Linear constraints   :
  Nonzeros           : Min   : 0.1083333        Max   : 1000000.       
  RHS nonzeros       : Min   : 0.1083333        Max   : 1000000.       
CPLEX> CPXPARAM_Parallel                                -1
CPXPARAM_Simplex_Tolerances_Feasibility          0.01
CPXPARAM_DetTimeLimit                            75000
CPXPARAM_MIP_Tolerances_MIPGap                   0.01
CPXPARAM_MIP_Tolerances_Integrality              1.0000000000000001e-09
Warning:  No solution found from 1 MIP starts.
Retaining values of one MIP start for possible repair.
Tried aggregator 3 times.
MIP Presolve eliminated 88643 rows and 19687 columns.
MIP Presolve added 3376 rows and 0 columns.
MIP Presolve modified 24869 coefficients.
Aggregator did 12990 substitutions.
Reduced MIP has 24948 rows, 21292 columns, and 71155 nonzeros.
Reduced MIP has 8419 binaries, 0 generals, 0 SOSs, and 0 indicators.
Presolve time = 0.25 sec. (173.99 ticks)
Probing fixed 379 vars, tightened 2817 bounds.
Probing time = 1.52 sec. (878.03 ticks)
Tried aggregator 2 times.
MIP Presolve eliminated 855 rows and 760 columns.
MIP Presolve modified 2213 coefficients.
Aggregator did 42 substitutions.
Reduced MIP has 24051 rows, 20490 columns, and 68559 nonzeros.
Reduced MIP has 8039 binaries, 0 generals, 0 SOSs, and 0 indicators.
Presolve time = 0.09 sec. (67.94 ticks)
Probing time = 0.05 sec. (16.30 ticks)
Clique table members: 6474.
MIP emphasis: balance optimality and feasibility.
MIP search method: dynamic search.
Parallel mode: opportunistic, using up to 12 threads.
Root relaxation solution time = 0.45 sec. (310.62 ticks)

        Nodes                                         Cuts/
   Node  Left     Objective  IInf  Best Integer    Best Bound    ItCnt     Gap

      0     0   127860.5707  1849                 127860.5707     6692         
      0     0   123874.0045   660                   Cuts: 765     7075         
      0     0   123449.6144   549                   Cuts: 305     7236         
      0     0   123444.3324   515                   Cuts: 155     7312         
      0     0   123413.1051   480                   Cuts: 102     7372         
      0     0   123413.1051   446                   Cuts: 107     7430         
      0     0   123413.1051   433                    Cuts: 70     7457         
      0     0   123413.1051   425                    Cuts: 66     7475         
      0     0   123413.1051   412                    Cuts: 43     7488         
      0     0   123413.1051   409                    Cuts: 49     7495         
      0     0   123413.1051   406                    Cuts: 37     7500         
Repair heuristic found nothing.
      0     2   123413.1051   406                 Impl Bds: 1     7500         
Elapsed time = 13.77 sec. (6308.55 ticks, tree = 0.02 MB, solutions = 0)
    124    31   118349.0653   364                 121176.9897     7705         
    314   215    61535.8126   302                 121176.9897    13410         
    423   309    60756.8992   295                 121176.9897    16295         
    611   423    infeasible                       121176.9897    18191         
    798   522    40076.0559   260                 121176.9897    20318         
   1052   583    38002.8093   279                 121176.9897    22827         
   1307   665     9938.7667   222                 121176.9897    27090         
   1527   821    15909.3399   250                 121176.9897    31598         
   1770   936     9811.5459   193                 121176.9897    32942         
   3082  2103    14717.8986   179                 121176.9897    36115         
Elapsed time = 26.52 sec. (9418.81 ticks, tree = 56.84 MB, solutions = 0)
*  3795+ 2505                         9064.4323   121176.9897              --- 
*  4007  2541      integral     0    14951.0059   121176.9897    36419  710.49%
   4244  2004    72651.5906   185    14951.0059    72499.9595    50324  384.92%
   4962   393    29578.0561   143    14951.0059    63205.0220    60510  322.75%
   5353   690        cutoff          14951.0059    60501.0119    64451  304.66%
   6372  1567    27819.0699   128    14951.0059    55110.1027    75378  268.60%
   7461  2145    46280.2796   141    14951.0059    46793.0587    82130  212.98%
   8505  3031    17029.4491    73    14951.0059    46281.9513    92433  209.56%
   9402  4009    18018.7001   116    14951.0059    45952.6641   104522  207.36%
  10259  4194    20416.1258   146    14951.0059    45557.3337   106921  204.71%
  10493  4759        cutoff          14951.0059    45518.2808   114801  204.45%
Elapsed time = 69.72 sec. (23090.82 ticks, tree = 44.59 MB, solutions = 5)
  11494  4894        cutoff          14951.0059    45457.3192   117430  204.04%
  12415  5629    29968.3965   111    14951.0059    44130.1906   127138  195.17%
  13452  6415    30275.4219   131    14951.0059    43663.2475   138620  192.04%
  14544  6687    18992.9477   107    14951.0059    43354.1627   142208  189.97%
  15519  8109    27520.6722   111    14951.0059    42623.8509   168809  185.09%
  16541  7995    21506.9663   128    14951.0059    42150.3688   165313  181.92%
  17620  9157    19370.4023   107    14951.0059    39735.3926   188631  165.77%
  18798  8787    23162.7857    85    14951.0059    38233.2310   181755  155.72%
  19916  9855    17812.0725   108    14951.0059    36206.2032   197554  142.17%
  20638 10915    19098.5720    51    14951.0059    36079.2085   209018  141.32%
Elapsed time = 107.39 sec. (32637.87 ticks, tree = 91.98 MB, solutions = 7)
  21051  7357    19652.5054   104    18951.1254    35790.4707   216605   88.86%
  22034  7464    infeasible          18951.1254    35700.6812   219397   88.38%
  23058  7770    19134.9915   104    18951.1254    35700.6812   227188   88.38%
  24052  8536    19088.2123   111    18951.1254    34857.2091   249176   83.93%
  25095  8867        cutoff          18951.1254    34433.2669   256901   81.70%
  26061  9542    26547.2047    92    18951.1254    34251.5850   280134   80.74%
  27106  9015    23577.0301    86    18951.1254    34083.3837   265283   79.85%
  28152  9670    21790.7448    63    18951.1254    34078.1263   297713   79.82%
  29210 10232    21030.5317    66    18951.1254    33893.6649   318653   78.85%
  30244 10116    19523.5500   106    18951.1254    33703.3784   312137   77.84%
Elapsed time = 146.86 sec. (42184.98 ticks, tree = 104.02 MB, solutions = 7)
  31311 11164    22003.1310    78    18951.1254    33412.2851   352030   76.31%
  32438 11220    21030.5317    65    18951.1254    33322.8748   352808   75.84%
  33553 11426        cutoff          18951.1254    33159.3983   356978   74.97%
  34624 11990    30684.5760   132    18951.1254    32544.6129   367134   71.73%
  35406 12206    26951.7635    79    18951.1254    32544.6129   370577   71.73%
  36352 12587    21541.9390    75    18951.1254    31919.4548   377134   68.43%
  37140 12620    31181.1242   126    18951.1254    31792.3139   377288   67.76%
  38203 14097    21999.9744   126    18951.1254    31491.9986   398176   66.17%
  39412 16067    25973.6100    76    18951.1254    31461.9075   420994   66.02%
  40601 15823    26938.7720    69    18951.1254    31313.0020   418069   65.23%
Elapsed time = 185.25 sec. (51732.93 ticks, tree = 149.80 MB, solutions = 7)
  41815 16738        cutoff          18951.1254    31181.1242   428382   64.53%
  43034 17789    21606.2481    76    18951.1254    31052.7159   439948   63.86%
  44327 16851    26751.4290   109    18951.1254    31047.0849   429510   63.83%
  45628 18841    23339.9102    74    18951.1254    31047.0849   450263   63.83%
  46868 20353    21956.0365    51    18951.1254    30796.9835   465160   62.51%
  48151 18982    21980.6376   100    18951.1254    30757.4775   451394   62.30%
  49346 21277    20836.8664    72    18951.1254    30699.9013   474398   62.00%
  50504 21360    21801.1984    68    18951.1254    30600.4109   474836   61.47%
  51643 22522    26399.3848    84    18951.1254    30557.3951   485856   61.24%
  52810 24402    25130.0634   124    18951.1254    30330.1865   504347   60.04%
Elapsed time = 227.31 sec. (61280.94 ticks, tree = 218.96 MB, solutions = 7)
  53967 26101    24081.3778   110    18951.1254    30283.6846   519075   59.80%
  54808 23986    20163.5514    64    18951.1254    30224.8094   499212   59.49%
  55799 24720    27055.4875    90    18951.1254    30224.8094   506967   59.49%
  56709 25775    29291.9132   112    18951.1254    30180.4141   515835   59.25%
  57541 26679    23631.5646    97    18951.1254    30094.5680   525959   58.80%
  58397 28695    20858.0232    87    18951.1254    29988.5688   545581   58.24%
  59375 28346    26929.7907    85    18951.1254    29975.0701   543251   58.17%
  60462 30821    26215.0926    78    18951.1254    29908.8011   569553   57.82%
  61664 30900    24776.6850    86    18951.1254    29908.8011   570191   57.82%
  62860 29576    29248.9067   146    18951.1254    29882.3414   554439   57.68%
Elapsed time = 260.98 sec. (70827.19 ticks, tree = 262.93 MB, solutions = 7)
  64010 32849    23604.4894   106    18951.1254    29812.7744   592342   57.31%
  65093 31074    22815.3139    51    18951.1254    29812.7744   572511   57.31%
  65800 31560        cutoff          18951.1254    29812.7744   578069   57.31%
  66437 33021    27374.5592   108    18951.1254    29812.7744   594895   57.31%

Clique cuts applied:  8
Cover cuts applied:  12
Implied bound cuts applied:  42
Flow cuts applied:  352
Mixed integer rounding cuts applied:  96
Gomory fractional cuts applied:  86

Root node processing (before b&c):
  Real time             =   13.09 sec. (6261.22 ticks)
Parallel b&c, 12 threads:
  Real time             =  253.51 sec. (68763.43 ticks)
  Sync time (average)   =    0.65 sec.
  Wait time (average)   =    0.04 sec.
                          ------------
Total (root+branch&cut) =  266.61 sec. (75024.65 ticks)

Solution pool: 7 solutions saved.

MIP - Deterministic time limit exceeded, integer feasible:  Objective =  1.8951125353e+04
Current MIP best bound =  2.9664008883e+04 (gap = 10712.9, 56.53%)
Solution time =  266.61 sec.  Iterations = 628852  Nodes = 66640 (35875)
Deterministic time = 75024.81 ticks  (281.40 ticks/sec)

CPLEX> Incumbent solution written to file 'C:\Users\Luke\Desktop\test919\logs\tmpm3iolt4j.cplex.sol'.
CPLEX> Exporting results... 
